 W Te 
 1.0000000000000000
     3.5500762220713602    0.0000000000000000    0.0000000000000000
    -1.7750381110356801    3.0744561936848842    0.0000000000000000
     0.0000000000000000   -0.0000000000000000   50.0000000000000000
   3   6
Cartesian
  0.0000000000000001  1.0248187312282948 17.9400000000000013
  1.7750381110356801  2.0496374624565892 25.0000000000000000
  0.0000000000000001  1.0248187312282948 32.0600000000000023
  1.7750381110356801  2.0496374624565892 19.7519622132334689
  1.7750381110356801  2.0496374624565892 16.1280377867665337
  0.0000000000000001  1.0248187312282948 26.8119622132334676
  0.0000000000000001  1.0248187312282948 23.1880377867665359
  1.7750381110356801  2.0496374624565892 33.8719622132334663
  1.7750381110356801  2.0496374624565892 30.2480377867665347
