 W Se 
 1.0000000000000000
     3.3190066244679373    0.0000000000000000    0.0000000000000000
    -1.6595033122339686    2.8743440521180719    0.0000000000000000
     0.0000000000000000   -0.0000000000000000   50.0000000000000000
   6  12
Cartesian
  0.0000000000000001  0.9581146840393572  8.7749999999999986
  1.6595033122339684  1.9162293680787146 15.2649999999999988
  0.0000000000000001  0.9581146840393572 21.7549999999999990
  1.6595033122339684  1.9162293680787146 28.2449999999999974
  0.0000000000000001  0.9581146840393572 34.7349999999999994
  1.6595033122339684  1.9162293680787146 41.2250000000000014
  1.6595033122339684  1.9162293680787146 10.4542764021964079
  1.6595033122339684  1.9162293680787146  7.0957235978035902
  0.0000000000000001  0.9581146840393572 16.9442764021964081
  0.0000000000000001  0.9581146840393572 13.5857235978035895
  1.6595033122339684  1.9162293680787146 23.4342764021964101
  1.6595033122339684  1.9162293680787146 20.0757235978035879
  0.0000000000000001  0.9581146840393572 29.9242764021964049
  0.0000000000000001  0.9581146840393572 26.5657235978035899
  1.6595033122339684  1.9162293680787146 36.4142764021964069
  1.6595033122339684  1.9162293680787146 33.0557235978035919
  0.0000000000000001  0.9581146840393572 42.9042764021964089
  0.0000000000000001  0.9581146840393572 39.5457235978035939
