 W Te 
 1.0000000000000000
     3.5500762220713602    0.0000000000000000    0.0000000000000000
    -1.7750381110356801    3.0744561936848842    0.0000000000000000
     0.0000000000000000   -0.0000000000000000   50.0000000000000000
   1   2
Cartesian
  0.0000000000000001  1.0248187312282948 25.0000000000000000
  1.7750381110356801  2.0496374624565892 26.8119622132334641
  1.7750381110356801  2.0496374624565892 23.1880377867665359
