Mo Se 
 1.0000000000000000
     3.3197487878576672    0.0000000000000000    0.0000000000000000
    -1.6598743939288336    2.8749867844673367    0.0000000000000000
     0.0000000000000000   -0.0000000000000000   50.0000000000000000
   4   8
Cartesian
  0.0000000000000000  0.9583289281557789 15.3100000000000023
  1.6598743939288336  1.9166578563115577 21.7700000000000031
  0.0000000000000000  0.9583289281557789 28.2300000000000040
  1.6598743939288336  1.9166578563115577 34.6899999999999977
  1.6598743939288336  1.9166578563115577 16.9790294767632055
  1.6598743939288336  1.9166578563115577 13.6409705232367955
  0.0000000000000000  0.9583289281557789 23.4390294767632064
  0.0000000000000000  0.9583289281557789 20.1009705232367963
  1.6598743939288336  1.9166578563115577 29.8990294767632072
  1.6598743939288336  1.9166578563115577 26.5609705232367972
  0.0000000000000000  0.9583289281557789 36.3590294767632045
  0.0000000000000000  0.9583289281557789 33.0209705232367980
