Mo Te                                   
   1.00000000000000     
     3.5473923118306230    0.0000000000000000    0.0000000000000000
    -1.7736961559153115    3.0721318592349283    0.0000000000000000
     0.0000000000000000    0.0000000000000000   50.0000000000000000
   Mo   Te
     5    10
Direct
  0.1666666666666643  0.3333333333333357  0.2207999999999970
  0.8333333333333357  0.6666666666666643  0.3603999999999985
  0.1666666666666643  0.3333333333333357  0.5000000000000000
  0.8333333333333357  0.6666666666666643  0.6396000000000015
  0.1666666666666643  0.3333333333333357  0.7792000000000030
  0.8333333333333357  0.6666666666666643  0.2569019999999966
  0.8333333333333357  0.6666666666666643  0.1846979999999974
  0.1666666666666643  0.3333333333333357  0.3965019999999981
  0.1666666666666643  0.3333333333333357  0.3242979999999989
  0.8333333333333357  0.6666666666666643  0.5361019999999996
  0.8333333333333357  0.6666666666666643  0.4638980000000004
  0.1666666666666643  0.3333333333333357  0.6757020000000011
  0.1666666666666643  0.3333333333333357  0.6034980000000019
  0.8333333333333357  0.6666666666666643  0.8153020000000026
  0.8333333333333357  0.6666666666666643  0.7430980000000034
 
  0.00000000E+00  0.00000000E+00  0.00000000E+00
  0.00000000E+00  0.00000000E+00  0.00000000E+00
  0.00000000E+00  0.00000000E+00  0.00000000E+00
  0.00000000E+00  0.00000000E+00  0.00000000E+00
  0.00000000E+00  0.00000000E+00  0.00000000E+00
  0.00000000E+00  0.00000000E+00  0.00000000E+00
  0.00000000E+00  0.00000000E+00  0.00000000E+00
  0.00000000E+00  0.00000000E+00  0.00000000E+00
  0.00000000E+00  0.00000000E+00  0.00000000E+00
  0.00000000E+00  0.00000000E+00  0.00000000E+00
  0.00000000E+00  0.00000000E+00  0.00000000E+00
  0.00000000E+00  0.00000000E+00  0.00000000E+00
  0.00000000E+00  0.00000000E+00  0.00000000E+00
  0.00000000E+00  0.00000000E+00  0.00000000E+00
  0.00000000E+00  0.00000000E+00  0.00000000E+00
