Mo Te 
 1.0000000000000000
     3.5473923118306230    0.0000000000000000    0.0000000000000000
    -1.7736961559153115    3.0721318592349283    0.0000000000000000
     0.0000000000000000   -0.0000000000000000   50.0000000000000000
   5  10
Cartesian
  0.0000000000000000  1.0240439530783092 11.0399999999999991
  1.7736961559153113  2.0480879061566188 18.0199999999999996
  0.0000000000000000  1.0240439530783092 25.0000000000000000
  1.7736961559153113  2.0480879061566188 31.9800000000000004
  0.0000000000000000  1.0240439530783092 38.9599999999999937
  1.7736961559153113  2.0480879061566188 12.8450999999999986
  1.7736961559153113  2.0480879061566188  9.2348999999999997
  0.0000000000000000  1.0240439530783092 19.8250999999999991
  0.0000000000000000  1.0240439530783092 16.2149000000000001
  1.7736961559153113  2.0480879061566188 26.8050999999999995
  1.7736961559153113  2.0480879061566188 23.1949000000000005
  0.0000000000000000  1.0240439530783092 33.7850999999999999
  0.0000000000000000  1.0240439530783092 30.1749000000000009
  1.7736961559153113  2.0480879061566188 40.7650999999999968
  1.7736961559153113  2.0480879061566188 37.1548999999999978
