Mo  S 
 1.0000000000000000
     3.1840664646845926    0.0000000000000000    0.0000000000000000
    -1.5920332323422963    2.7574824457549640    0.0000000000000000
     0.0000000000000000    0.0000000000000000   50.0000000000000000
   5  10
Cartesian
  0.0000000000000000  0.9191608152516547 12.6999999999999993
  1.5920332323422963  1.8383216305033092 18.8500000000000014
  0.0000000000000000  0.9191608152516547 25.0000000000000000
  1.5920332323422963  1.8383216305033092 31.1500000000000021
  0.0000000000000000  0.9191608152516547 37.2999999999999972
  1.5920332323422963  1.8383216305033092 14.2635563231757594
  1.5920332323422963  1.8383216305033092 11.1364436768242392
  0.0000000000000000  0.9191608152516547 20.4135563231757580
  0.0000000000000000  0.9191608152516547 17.2864436768242413
  1.5920332323422963  1.8383216305033092 26.5635563231757601
  1.5920332323422963  1.8383216305033092 23.4364436768242399
  0.0000000000000000  0.9191608152516547 32.7135563231757658
  0.0000000000000000  0.9191608152516547 29.5864436768242420
  1.5920332323422963  1.8383216305033092 38.8635563231757573
  1.5920332323422963  1.8383216305033092 35.7364436768242371
