Mo Se                                   
   1.00000000000000     
     3.3197487878576672    0.0000000000000000    0.0000000000000000
    -1.6598743939288336    2.8749867844673367    0.0000000000000000
     0.0000000000000000    0.0000000000000000   50.0000000000000000
   Mo   Se
     6    12
Direct
  0.1666666666666643  0.3333333333333357  0.1769999999999996
  0.8333333333333357  0.6666666666666643  0.3061999999999969
  0.1666666666666643  0.3333333333333357  0.4354000000000013
  0.8333333333333357  0.6666666666666643  0.5645999999999987
  0.1666666666666643  0.3333333333333357  0.6938000000000031
  0.8333333333333357  0.6666666666666643  0.8230000000000004
  0.8333333333333357  0.6666666666666643  0.2103805895352622
  0.8333333333333357  0.6666666666666643  0.1436194104647370
  0.1666666666666643  0.3333333333333357  0.3395805895352666
  0.1666666666666643  0.3333333333333357  0.2728194104647343
  0.8333333333333357  0.6666666666666643  0.4687805895352639
  0.8333333333333357  0.6666666666666643  0.4020194104647388
  0.1666666666666643  0.3333333333333357  0.5979805895352612
  0.1666666666666643  0.3333333333333357  0.5312194104647361
  0.8333333333333357  0.6666666666666643  0.7271805895352657
  0.8333333333333357  0.6666666666666643  0.6604194104647334
  0.1666666666666643  0.3333333333333357  0.8563805895352630
  0.1666666666666643  0.3333333333333357  0.7896194104647378
 
  0.00000000E+00  0.00000000E+00  0.00000000E+00
  0.00000000E+00  0.00000000E+00  0.00000000E+00
  0.00000000E+00  0.00000000E+00  0.00000000E+00
  0.00000000E+00  0.00000000E+00  0.00000000E+00
  0.00000000E+00  0.00000000E+00  0.00000000E+00
  0.00000000E+00  0.00000000E+00  0.00000000E+00
  0.00000000E+00  0.00000000E+00  0.00000000E+00
  0.00000000E+00  0.00000000E+00  0.00000000E+00
  0.00000000E+00  0.00000000E+00  0.00000000E+00
  0.00000000E+00  0.00000000E+00  0.00000000E+00
  0.00000000E+00  0.00000000E+00  0.00000000E+00
  0.00000000E+00  0.00000000E+00  0.00000000E+00
  0.00000000E+00  0.00000000E+00  0.00000000E+00
  0.00000000E+00  0.00000000E+00  0.00000000E+00
  0.00000000E+00  0.00000000E+00  0.00000000E+00
  0.00000000E+00  0.00000000E+00  0.00000000E+00
  0.00000000E+00  0.00000000E+00  0.00000000E+00
  0.00000000E+00  0.00000000E+00  0.00000000E+00
