Mo Se 
 1.0000000000000000
     3.3197487878576672    0.0000000000000000    0.0000000000000000
    -1.6598743939288336    2.8749867844673367    0.0000000000000000
     0.0000000000000000   -0.0000000000000000   50.0000000000000000
   6  12
Cartesian
  0.0000000000000000  0.9583289281557789  8.8500000000000014
  1.6598743939288336  1.9166578563115577 15.3100000000000023
  0.0000000000000000  0.9583289281557789 21.7700000000000031
  1.6598743939288336  1.9166578563115577 28.2300000000000004
  0.0000000000000000  0.9583289281557789 34.6899999999999977
  1.6598743939288336  1.9166578563115577 41.1499999999999986
  1.6598743939288336  1.9166578563115577 10.5190294767632047
  1.6598743939288336  1.9166578563115577  7.1809705232367955
  0.0000000000000000  0.9583289281557789 16.9790294767632055
  0.0000000000000000  0.9583289281557789 13.6409705232367955
  1.6598743939288336  1.9166578563115577 23.4390294767632064
  1.6598743939288336  1.9166578563115577 20.1009705232367963
  0.0000000000000000  0.9583289281557789 29.8990294767632037
  0.0000000000000000  0.9583289281557789 26.5609705232367972
  1.6598743939288336  1.9166578563115577 36.3590294767632045
  1.6598743939288336  1.9166578563115577 33.0209705232367980
  0.0000000000000000  0.9583289281557789 42.8190294767632054
  0.0000000000000000  0.9583289281557789 39.4809705232367918
