Mo Te 
 1.0000000000000000
     3.5473923118306230    0.0000000000000000    0.0000000000000000
    -1.7736961559153115    3.0721318592349283    0.0000000000000000
     0.0000000000000000   -0.0000000000000000   50.0000000000000000
   2   4
Cartesian
  0.0000000000000000  1.0240439530783092 21.5099999999999980
  1.7736961559153113  2.0480879061566188 28.4900000000000020
  1.7736961559153113  2.0480879061566188 23.3151000000000010
  1.7736961559153113  2.0480879061566188 19.7049000000000021
  0.0000000000000000  1.0240439530783092 30.2950999999999979
  0.0000000000000000  1.0240439530783092 26.6848999999999990
