Mo Te 
 1.0000000000000000
     3.5473923118306230    0.0000000000000000    0.0000000000000000
    -1.7736961559153115    3.0721318592349283    0.0000000000000000
     0.0000000000000000   -0.0000000000000000   50.0000000000000000
   3   6
Cartesian
  0.0000000000000000  1.0240439530783092 18.0199999999999996
  1.7736961559153113  2.0480879061566188 25.0000000000000000
  0.0000000000000000  1.0240439530783092 31.9800000000000004
  1.7736961559153113  2.0480879061566188 19.8250999999999991
  1.7736961559153113  2.0480879061566188 16.2149000000000001
  0.0000000000000000  1.0240439530783092 26.8050999999999995
  0.0000000000000000  1.0240439530783092 23.1949000000000005
  1.7736961559153113  2.0480879061566188 33.7850999999999999
  1.7736961559153113  2.0480879061566188 30.1749000000000009
