Mo Te                                   
   1.00000000000000     
     3.5473923118306230    0.0000000000000000    0.0000000000000000
    -1.7736961559153115    3.0721318592349283    0.0000000000000000
     0.0000000000000000    0.0000000000000000   50.0000000000000000
   Mo   Te
     4     8
Direct
  0.1666666666666643  0.3333333333333357  0.2905999999999977
  0.8333333333333357  0.6666666666666643  0.4301999999999992
  0.1666666666666643  0.3333333333333357  0.5698000000000008
  0.8333333333333357  0.6666666666666643  0.7094000000000023
  0.8333333333333357  0.6666666666666643  0.3267019999999974
  0.8333333333333357  0.6666666666666643  0.2544979999999981
  0.1666666666666643  0.3333333333333357  0.4663019999999989
  0.1666666666666643  0.3333333333333357  0.3940979999999996
  0.8333333333333357  0.6666666666666643  0.6059020000000004
  0.8333333333333357  0.6666666666666643  0.5336980000000011
  0.1666666666666643  0.3333333333333357  0.7455020000000019
  0.1666666666666643  0.3333333333333357  0.6732980000000026
 
  0.00000000E+00  0.00000000E+00  0.00000000E+00
  0.00000000E+00  0.00000000E+00  0.00000000E+00
  0.00000000E+00  0.00000000E+00  0.00000000E+00
  0.00000000E+00  0.00000000E+00  0.00000000E+00
  0.00000000E+00  0.00000000E+00  0.00000000E+00
  0.00000000E+00  0.00000000E+00  0.00000000E+00
  0.00000000E+00  0.00000000E+00  0.00000000E+00
  0.00000000E+00  0.00000000E+00  0.00000000E+00
  0.00000000E+00  0.00000000E+00  0.00000000E+00
  0.00000000E+00  0.00000000E+00  0.00000000E+00
  0.00000000E+00  0.00000000E+00  0.00000000E+00
  0.00000000E+00  0.00000000E+00  0.00000000E+00
