Mo Te 
 1.0000000000000000
     3.5473923118306230    0.0000000000000000    0.0000000000000000
    -1.7736961559153115    3.0721318592349283    0.0000000000000000
     0.0000000000000000   -0.0000000000000000   50.0000000000000000
   4   8
Cartesian
  0.0000000000000000  1.0240439530783092 14.5299999999999976
  1.7736961559153113  2.0480879061566188 21.5099999999999980
  0.0000000000000000  1.0240439530783092 28.4899999999999984
  1.7736961559153113  2.0480879061566188 35.4699999999999989
  1.7736961559153113  2.0480879061566188 16.3350999999999971
  1.7736961559153113  2.0480879061566188 12.7248999999999981
  0.0000000000000000  1.0240439530783092 23.3150999999999975
  0.0000000000000000  1.0240439530783092 19.7048999999999985
  1.7736961559153113  2.0480879061566188 30.2950999999999979
  1.7736961559153113  2.0480879061566188 26.6848999999999990
  0.0000000000000000  1.0240439530783092 37.2751000000000019
  0.0000000000000000  1.0240439530783092 33.6649000000000029
