Mo Se                                   
   1.00000000000000     
     3.3197487878576672    0.0000000000000000    0.0000000000000000
    -1.6598743939288336    2.8749867844673367    0.0000000000000000
     0.0000000000000000    0.0000000000000000   50.0000000000000000
   Mo   Se
     3     6
Direct
  0.1666666666666643  0.3333333333333357  0.3708000000000027
  0.8333333333333357  0.6666666666666643  0.5000000000000000
  0.1666666666666643  0.3333333333333357  0.6291999999999973
  0.8333333333333357  0.6666666666666643  0.4041805895352653
  0.8333333333333357  0.6666666666666643  0.3374194104647330
  0.1666666666666643  0.3333333333333357  0.5333805895352626
  0.1666666666666643  0.3333333333333357  0.4666194104647374
  0.8333333333333357  0.6666666666666643  0.6625805895352670
  0.8333333333333357  0.6666666666666643  0.5958194104647347
 
  0.00000000E+00  0.00000000E+00  0.00000000E+00
  0.00000000E+00  0.00000000E+00  0.00000000E+00
  0.00000000E+00  0.00000000E+00  0.00000000E+00
  0.00000000E+00  0.00000000E+00  0.00000000E+00
  0.00000000E+00  0.00000000E+00  0.00000000E+00
  0.00000000E+00  0.00000000E+00  0.00000000E+00
  0.00000000E+00  0.00000000E+00  0.00000000E+00
  0.00000000E+00  0.00000000E+00  0.00000000E+00
  0.00000000E+00  0.00000000E+00  0.00000000E+00
