Mo Se 
 1.0000000000000000
     3.3197487878576672    0.0000000000000000    0.0000000000000000
    -1.6598743939288336    2.8749867844673367    0.0000000000000000
     0.0000000000000000   -0.0000000000000000   50.0000000000000000
   3   6
Cartesian
  0.0000000000000000  0.9583289281557789 18.5399999999999991
  1.6598743939288336  1.9166578563115577 25.0000000000000000
  0.0000000000000000  0.9583289281557789 31.4600000000000009
  1.6598743939288336  1.9166578563115577 20.2090294767632059
  1.6598743939288336  1.9166578563115577 16.8709705232367924
  0.0000000000000000  0.9583289281557789 26.6690294767632032
  0.0000000000000000  0.9583289281557789 23.3309705232367932
  1.6598743939288336  1.9166578563115577 33.1290294767632076
  1.6598743939288336  1.9166578563115577 29.7909705232367941
