Mo  S                                   
   1.00000000000000     
     3.1840664646845926    0.0000000000000000    0.0000000000000000
    -1.5920332323422963    2.7574824457549640    0.0000000000000000
     0.0000000000000000    0.0000000000000000   50.0000000000000000
   Mo   S 
     2     4
Direct
  0.1666666666666643  0.3333333333333357  0.4384999999999977
  0.8333333333333357  0.6666666666666643  0.5615000000000023
  0.8333333333333357  0.6666666666666643  0.4697711264635132
  0.8333333333333357  0.6666666666666643  0.4072288735364822
  0.1666666666666643  0.3333333333333357  0.5927711264635178
  0.1666666666666643  0.3333333333333357  0.5302288735364868
 
  0.00000000E+00  0.00000000E+00  0.00000000E+00
  0.00000000E+00  0.00000000E+00  0.00000000E+00
  0.00000000E+00  0.00000000E+00  0.00000000E+00
  0.00000000E+00  0.00000000E+00  0.00000000E+00
  0.00000000E+00  0.00000000E+00  0.00000000E+00
  0.00000000E+00  0.00000000E+00  0.00000000E+00
