Mo  S 
 1.0000000000000000
     3.1840664646845926    0.0000000000000000    0.0000000000000000
    -1.5920332323422963    2.7574824457549640    0.0000000000000000
     0.0000000000000000    0.0000000000000000   50.0000000000000000
   2   4
Cartesian
  0.0000000000000000  0.9191608152516547 21.9250000000000007
  1.5920332323422963  1.8383216305033092 28.0750000000000028
  1.5920332323422963  1.8383216305033092 23.4885563231757608
  1.5920332323422963  1.8383216305033092 20.3614436768242406
  0.0000000000000000  0.9191608152516547 29.6385563231757594
  0.0000000000000000  0.9191608152516547 26.5114436768242427
