 W Te 
 1.0000000000000000
     3.5500762220713602    0.0000000000000000    0.0000000000000000
    -1.7750381110356801    3.0744561936848842    0.0000000000000000
     0.0000000000000000   -0.0000000000000000   50.0000000000000000
   6  12
Cartesian
  0.0000000000000001  1.0248187312282948  7.3500000000000023
  1.7750381110356801  2.0496374624565892 14.4100000000000001
  0.0000000000000001  1.0248187312282948 21.4699999999999989
  1.7750381110356801  2.0496374624565892 28.5300000000000011
  0.0000000000000001  1.0248187312282948 35.5900000000000034
  1.7750381110356801  2.0496374624565892 42.6499999999999986
  1.7750381110356801  2.0496374624565892  9.1619622132334690
  1.7750381110356801  2.0496374624565892  5.5380377867665365
  0.0000000000000001  1.0248187312282948 16.2219622132334678
  0.0000000000000001  1.0248187312282948 12.5980377867665361
  1.7750381110356801  2.0496374624565892 23.2819622132334665
  1.7750381110356801  2.0496374624565892 19.6580377867665348
  0.0000000000000001  1.0248187312282948 30.3419622132334652
  0.0000000000000001  1.0248187312282948 26.7180377867665371
  1.7750381110356801  2.0496374624565892 37.4019622132334675
  1.7750381110356801  2.0496374624565892 33.7780377867665322
  0.0000000000000001  1.0248187312282948 44.4619622132334626
  0.0000000000000001  1.0248187312282948 40.8380377867665345
