Mo  S 
 1.0000000000000000
     3.1840664646845926    0.0000000000000000    0.0000000000000000
    -1.5920332323422963    2.7574824457549640    0.0000000000000000
     0.0000000000000000    0.0000000000000000   50.0000000000000000
   6  12
Cartesian
  0.0000000000000000  0.9191608152516547  9.6250000000000000
  1.5920332323422963  1.8383216305033092 15.7750000000000004
  0.0000000000000000  0.9191608152516547 21.9250000000000007
  1.5920332323422963  1.8383216305033092 28.0750000000000028
  0.0000000000000000  0.9191608152516547 34.2250000000000014
  1.5920332323422963  1.8383216305033092 40.3750000000000000
  1.5920332323422963  1.8383216305033092 11.1885563231757601
  1.5920332323422963  1.8383216305033092  8.0614436768242399
  0.0000000000000000  0.9191608152516547 17.3385563231757587
  0.0000000000000000  0.9191608152516547 14.2114436768242403
  1.5920332323422963  1.8383216305033092 23.4885563231757608
  1.5920332323422963  1.8383216305033092 20.3614436768242406
  0.0000000000000000  0.9191608152516547 29.6385563231757629
  0.0000000000000000  0.9191608152516547 26.5114436768242427
  1.5920332323422963  1.8383216305033092 35.7885563231757615
  1.5920332323422963  1.8383216305033092 32.6614436768242413
  0.0000000000000000  0.9191608152516547 41.9385563231757601
  0.0000000000000000  0.9191608152516547 38.8114436768242399
