Mo  S                                   
   1.00000000000000     
     3.1840664646845926    0.0000000000000000    0.0000000000000000
    -1.5920332323422963    2.7574824457549640    0.0000000000000000
     0.0000000000000000    0.0000000000000000   50.0000000000000000
   Mo   S 
     3     6
Direct
  0.1666666666666643  0.3333333333333357  0.3770000000000024
  0.8333333333333357  0.6666666666666643  0.5000000000000000
  0.1666666666666643  0.3333333333333357  0.6229999999999976
  0.8333333333333357  0.6666666666666643  0.4082711264635179
  0.8333333333333357  0.6666666666666643  0.3457288735364870
  0.1666666666666643  0.3333333333333357  0.5312711264635155
  0.1666666666666643  0.3333333333333357  0.4687288735364845
  0.8333333333333357  0.6666666666666643  0.6542711264635130
  0.8333333333333357  0.6666666666666643  0.5917288735364821
 
  0.00000000E+00  0.00000000E+00  0.00000000E+00
  0.00000000E+00  0.00000000E+00  0.00000000E+00
  0.00000000E+00  0.00000000E+00  0.00000000E+00
  0.00000000E+00  0.00000000E+00  0.00000000E+00
  0.00000000E+00  0.00000000E+00  0.00000000E+00
  0.00000000E+00  0.00000000E+00  0.00000000E+00
  0.00000000E+00  0.00000000E+00  0.00000000E+00
  0.00000000E+00  0.00000000E+00  0.00000000E+00
  0.00000000E+00  0.00000000E+00  0.00000000E+00
