Mo  S 
 1.0000000000000000
     3.1840664646845926    0.0000000000000000    0.0000000000000000
    -1.5920332323422963    2.7574824457549640    0.0000000000000000
     0.0000000000000000    0.0000000000000000   50.0000000000000000
   3   6
Cartesian
  0.0000000000000000  0.9191608152516547 18.8500000000000014
  1.5920332323422963  1.8383216305033092 25.0000000000000000
  0.0000000000000000  0.9191608152516547 31.1499999999999986
  1.5920332323422963  1.8383216305033092 20.4135563231757615
  1.5920332323422963  1.8383216305033092 17.2864436768242413
  0.0000000000000000  0.9191608152516547 26.5635563231757601
  0.0000000000000000  0.9191608152516547 23.4364436768242399
  1.5920332323422963  1.8383216305033092 32.7135563231757587
  1.5920332323422963  1.8383216305033092 29.5864436768242385
