Mo Te 
 1.0000000000000000
     3.5473923118306230    0.0000000000000000    0.0000000000000000
    -1.7736961559153115    3.0721318592349283    0.0000000000000000
     0.0000000000000000   -0.0000000000000000   50.0000000000000000
   6  12
Cartesian
  0.0000000000000000  1.0240439530783092  7.5499999999999972
  1.7736961559153113  2.0480879061566188 14.5299999999999976
  0.0000000000000000  1.0240439530783092 21.5099999999999980
  1.7736961559153113  2.0480879061566188 28.4899999999999984
  0.0000000000000000  1.0240439530783092 35.4699999999999989
  1.7736961559153113  2.0480879061566188 42.4500000000000028
  1.7736961559153113  2.0480879061566188  9.3550999999999966
  1.7736961559153113  2.0480879061566188  5.7448999999999977
  0.0000000000000000  1.0240439530783092 16.3350999999999971
  0.0000000000000000  1.0240439530783092 12.7248999999999981
  1.7736961559153113  2.0480879061566188 23.3150999999999975
  1.7736961559153113  2.0480879061566188 19.7048999999999985
  0.0000000000000000  1.0240439530783092 30.2951000000000015
  0.0000000000000000  1.0240439530783092 26.6848999999999990
  1.7736961559153113  2.0480879061566188 37.2751000000000019
  1.7736961559153113  2.0480879061566188 33.6649000000000029
  0.0000000000000000  1.0240439530783092 44.2551000000000059
  0.0000000000000000  1.0240439530783092 40.6449000000000069
