Mo Se                                   
   1.00000000000000     
     3.3197487878576672    0.0000000000000000    0.0000000000000000
    -1.6598743939288336    2.8749867844673367    0.0000000000000000
     0.0000000000000000    0.0000000000000000   50.0000000000000000
   Mo   Se
     5    10
Direct
  0.1666666666666643  0.3333333333333357  0.2415999999999983
  0.8333333333333357  0.6666666666666643  0.3708000000000027
  0.1666666666666643  0.3333333333333357  0.5000000000000000
  0.8333333333333357  0.6666666666666643  0.6291999999999973
  0.1666666666666643  0.3333333333333357  0.7584000000000017
  0.8333333333333357  0.6666666666666643  0.2749805895352608
  0.8333333333333357  0.6666666666666643  0.2082194104647357
  0.1666666666666643  0.3333333333333357  0.4041805895352653
  0.1666666666666643  0.3333333333333357  0.3374194104647330
  0.8333333333333357  0.6666666666666643  0.5333805895352626
  0.8333333333333357  0.6666666666666643  0.4666194104647374
  0.1666666666666643  0.3333333333333357  0.6625805895352670
  0.1666666666666643  0.3333333333333357  0.5958194104647347
  0.8333333333333357  0.6666666666666643  0.7917805895352643
  0.8333333333333357  0.6666666666666643  0.7250194104647392
 
  0.00000000E+00  0.00000000E+00  0.00000000E+00
  0.00000000E+00  0.00000000E+00  0.00000000E+00
  0.00000000E+00  0.00000000E+00  0.00000000E+00
  0.00000000E+00  0.00000000E+00  0.00000000E+00
  0.00000000E+00  0.00000000E+00  0.00000000E+00
  0.00000000E+00  0.00000000E+00  0.00000000E+00
  0.00000000E+00  0.00000000E+00  0.00000000E+00
  0.00000000E+00  0.00000000E+00  0.00000000E+00
  0.00000000E+00  0.00000000E+00  0.00000000E+00
  0.00000000E+00  0.00000000E+00  0.00000000E+00
  0.00000000E+00  0.00000000E+00  0.00000000E+00
  0.00000000E+00  0.00000000E+00  0.00000000E+00
  0.00000000E+00  0.00000000E+00  0.00000000E+00
  0.00000000E+00  0.00000000E+00  0.00000000E+00
  0.00000000E+00  0.00000000E+00  0.00000000E+00
