Mo Se 
 1.0000000000000000
     3.3197487878576672    0.0000000000000000    0.0000000000000000
    -1.6598743939288336    2.8749867844673367    0.0000000000000000
     0.0000000000000000   -0.0000000000000000   50.0000000000000000
   5  10
Cartesian
  0.0000000000000000  0.9583289281557789 12.0800000000000018
  1.6598743939288336  1.9166578563115577 18.5400000000000027
  0.0000000000000000  0.9583289281557789 25.0000000000000036
  1.6598743939288336  1.9166578563115577 31.4600000000000009
  0.0000000000000000  0.9583289281557789 37.9199999999999946
  1.6598743939288336  1.9166578563115577 13.7490294767632051
  1.6598743939288336  1.9166578563115577 10.4109705232367951
  0.0000000000000000  0.9583289281557789 20.2090294767632059
  0.0000000000000000  0.9583289281557789 16.8709705232367959
  1.6598743939288336  1.9166578563115577 26.6690294767632068
  1.6598743939288336  1.9166578563115577 23.3309705232367968
  0.0000000000000000  0.9583289281557789 33.1290294767632005
  0.0000000000000000  0.9583289281557789 29.7909705232367976
  1.6598743939288336  1.9166578563115577 39.5890294767632014
  1.6598743939288336  1.9166578563115577 36.2509705232367949
