 W  S 
 1.0000000000000000
     3.1859459496614191    0.0000000000000000    0.0000000000000000
    -1.5929729748307095    2.7591101274909273    0.0000000000000000
     0.0000000000000000   -0.0000000000000000   50.0000000000000000
   3   6
Cartesian
  0.0000000000000001  0.9197033758303091 18.8500000000000014
  1.5929729748307095  1.8394067516606181 25.0000000000000000
  0.0000000000000001  0.9197033758303091 31.1499999999999986
  1.5929729748307095  1.8394067516606181 20.4227974379861834
  1.5929729748307095  1.8394067516606181 17.2772025620138159
  0.0000000000000001  0.9197033758303091 26.5727974379861820
  0.0000000000000001  0.9197033758303091 23.4272025620138180
  1.5929729748307095  1.8394067516606181 32.7227974379861877
  1.5929729748307095  1.8394067516606181 29.5772025620138166
