Mo Te 
 1.0000000000000000
     3.5473923118306230    0.0000000000000000    0.0000000000000000
    -1.7736961559153115    3.0721318592349283    0.0000000000000000
     0.0000000000000000   -0.0000000000000000   50.0000000000000000
   1   2
Cartesian
  0.0000000000000000  1.0240439530783092 25.0000000000000000
  1.7736961559153113  2.0480879061566188 26.8050999999999995
  1.7736961559153113  2.0480879061566188 23.1949000000000005
