 W Se                                   
   1.00000000000000     
     3.3190066244679373    0.0000000000000000    0.0000000000000000
    -1.6595033122339686    2.8743440521180719    0.0000000000000000
     0.0000000000000000    0.0000000000000000   50.0000000000000000
   W    Se
     1     2
Direct
  0.1666666666666643  0.3333333333333357  0.5000000000000000
  0.8333333333333357  0.6666666666666643  0.5335855280439290
  0.8333333333333357  0.6666666666666643  0.4664144719560710
 
  0.00000000E+00  0.00000000E+00  0.00000000E+00
  0.00000000E+00  0.00000000E+00  0.00000000E+00
  0.00000000E+00  0.00000000E+00  0.00000000E+00
