 W Se 
 1.0000000000000000
     3.3190066244679373    0.0000000000000000    0.0000000000000000
    -1.6595033122339686    2.8743440521180719    0.0000000000000000
     0.0000000000000000   -0.0000000000000000   50.0000000000000000
   1   2
Cartesian
  0.0000000000000001  0.9581146840393572 25.0000000000000000
  1.6595033122339684  1.9162293680787146 26.6792764021964075
  1.6595033122339684  1.9162293680787146 23.3207235978035925
