 W Se 
 1.0000000000000000
     3.3190066244679373    0.0000000000000000    0.0000000000000000
    -1.6595033122339686    2.8743440521180719    0.0000000000000000
     0.0000000000000000   -0.0000000000000000   50.0000000000000000
   3   6
Cartesian
  0.0000000000000001  0.9581146840393572 18.5099999999999980
  1.6595033122339684  1.9162293680787146 25.0000000000000000
  0.0000000000000001  0.9581146840393572 31.4899999999999984
  1.6595033122339684  1.9162293680787146 20.1892764021964055
  1.6595033122339684  1.9162293680787146 16.8307235978035905
  0.0000000000000001  0.9581146840393572 26.6792764021964075
  0.0000000000000001  0.9581146840393572 23.3207235978035889
  1.6595033122339684  1.9162293680787146 33.1692764021964095
  1.6595033122339684  1.9162293680787146 29.8107235978035874
