 W  S 
 1.0000000000000000
     3.1859459496614191    0.0000000000000000    0.0000000000000000
    -1.5929729748307095    2.7591101274909273    0.0000000000000000
     0.0000000000000000   -0.0000000000000000   50.0000000000000000
   1   2
Cartesian
  0.0000000000000001  0.9197033758303091 25.0000000000000000
  1.5929729748307095  1.8394067516606181 26.5727974379861855
  1.5929729748307095  1.8394067516606181 23.4272025620138145
