 W Se                                   
   1.00000000000000     
     3.3190066244679373    0.0000000000000000    0.0000000000000000
    -1.6595033122339686    2.8743440521180719    0.0000000000000000
     0.0000000000000000    0.0000000000000000   50.0000000000000000
   W    Se
     5    10
Direct
  0.1666666666666643  0.3333333333333357  0.2404000000000011
  0.8333333333333357  0.6666666666666643  0.3701999999999970
  0.1666666666666643  0.3333333333333357  0.5000000000000000
  0.8333333333333357  0.6666666666666643  0.6298000000000030
  0.1666666666666643  0.3333333333333357  0.7595999999999989
  0.8333333333333357  0.6666666666666643  0.2739855280439301
  0.8333333333333357  0.6666666666666643  0.2068144719560721
  0.1666666666666643  0.3333333333333357  0.4037855280439260
  0.1666666666666643  0.3333333333333357  0.3366144719560751
  0.8333333333333357  0.6666666666666643  0.5335855280439290
  0.8333333333333357  0.6666666666666643  0.4664144719560710
  0.1666666666666643  0.3333333333333357  0.6633855280439249
  0.1666666666666643  0.3333333333333357  0.5962144719560740
  0.8333333333333357  0.6666666666666643  0.7931855280439279
  0.8333333333333357  0.6666666666666643  0.7260144719560699
 
  0.00000000E+00  0.00000000E+00  0.00000000E+00
  0.00000000E+00  0.00000000E+00  0.00000000E+00
  0.00000000E+00  0.00000000E+00  0.00000000E+00
  0.00000000E+00  0.00000000E+00  0.00000000E+00
  0.00000000E+00  0.00000000E+00  0.00000000E+00
  0.00000000E+00  0.00000000E+00  0.00000000E+00
  0.00000000E+00  0.00000000E+00  0.00000000E+00
  0.00000000E+00  0.00000000E+00  0.00000000E+00
  0.00000000E+00  0.00000000E+00  0.00000000E+00
  0.00000000E+00  0.00000000E+00  0.00000000E+00
  0.00000000E+00  0.00000000E+00  0.00000000E+00
  0.00000000E+00  0.00000000E+00  0.00000000E+00
  0.00000000E+00  0.00000000E+00  0.00000000E+00
  0.00000000E+00  0.00000000E+00  0.00000000E+00
  0.00000000E+00  0.00000000E+00  0.00000000E+00
