 W Se 
 1.0000000000000000
     3.3190066244679373    0.0000000000000000    0.0000000000000000
    -1.6595033122339686    2.8743440521180719    0.0000000000000000
     0.0000000000000000   -0.0000000000000000   50.0000000000000000
   5  10
Cartesian
  0.0000000000000001  0.9581146840393572 12.0199999999999996
  1.6595033122339684  1.9162293680787146 18.5100000000000016
  0.0000000000000001  0.9581146840393572 25.0000000000000000
  1.6595033122339684  1.9162293680787146 31.4899999999999984
  0.0000000000000001  0.9581146840393572 37.9800000000000040
  1.6595033122339684  1.9162293680787146 13.6992764021964106
  1.6595033122339684  1.9162293680787146 10.3407235978035921
  0.0000000000000001  0.9581146840393572 20.1892764021964091
  0.0000000000000001  0.9581146840393572 16.8307235978035905
  1.6595033122339684  1.9162293680787146 26.6792764021964111
  1.6595033122339684  1.9162293680787146 23.3207235978035889
  0.0000000000000001  0.9581146840393572 33.1692764021964095
  0.0000000000000001  0.9581146840393572 29.8107235978035909
  1.6595033122339684  1.9162293680787146 39.6592764021964115
  1.6595033122339684  1.9162293680787146 36.3007235978035965
