 W Se                                   
   1.00000000000000     
     3.3190066244679373    0.0000000000000000    0.0000000000000000
    -1.6595033122339686    2.8743440521180719    0.0000000000000000
     0.0000000000000000    0.0000000000000000   50.0000000000000000
   W    Se
     4     8
Direct
  0.1666666666666643  0.3333333333333357  0.3053000000000026
  0.8333333333333357  0.6666666666666643  0.4350999999999985
  0.1666666666666643  0.3333333333333357  0.5649000000000015
  0.8333333333333357  0.6666666666666643  0.6946999999999974
  0.8333333333333357  0.6666666666666643  0.3388855280439316
  0.8333333333333357  0.6666666666666643  0.2717144719560736
  0.1666666666666643  0.3333333333333357  0.4686855280439275
  0.1666666666666643  0.3333333333333357  0.4015144719560695
  0.8333333333333357  0.6666666666666643  0.5984855280439305
  0.8333333333333357  0.6666666666666643  0.5313144719560725
  0.1666666666666643  0.3333333333333357  0.7282855280439264
  0.1666666666666643  0.3333333333333357  0.6611144719560684
 
  0.00000000E+00  0.00000000E+00  0.00000000E+00
  0.00000000E+00  0.00000000E+00  0.00000000E+00
  0.00000000E+00  0.00000000E+00  0.00000000E+00
  0.00000000E+00  0.00000000E+00  0.00000000E+00
  0.00000000E+00  0.00000000E+00  0.00000000E+00
  0.00000000E+00  0.00000000E+00  0.00000000E+00
  0.00000000E+00  0.00000000E+00  0.00000000E+00
  0.00000000E+00  0.00000000E+00  0.00000000E+00
  0.00000000E+00  0.00000000E+00  0.00000000E+00
  0.00000000E+00  0.00000000E+00  0.00000000E+00
  0.00000000E+00  0.00000000E+00  0.00000000E+00
  0.00000000E+00  0.00000000E+00  0.00000000E+00
