 W Se 
 1.0000000000000000
     3.3190066244679373    0.0000000000000000    0.0000000000000000
    -1.6595033122339686    2.8743440521180719    0.0000000000000000
     0.0000000000000000   -0.0000000000000000   50.0000000000000000
   4   8
Cartesian
  0.0000000000000001  0.9581146840393572 15.2650000000000006
  1.6595033122339684  1.9162293680787146 21.7550000000000026
  0.0000000000000001  0.9581146840393572 28.2450000000000010
  1.6595033122339684  1.9162293680787146 34.7349999999999994
  1.6595033122339684  1.9162293680787146 16.9442764021964116
  1.6595033122339684  1.9162293680787146 13.5857235978035931
  0.0000000000000001  0.9581146840393572 23.4342764021964101
  0.0000000000000001  0.9581146840393572 20.0757235978035915
  1.6595033122339684  1.9162293680787146 29.9242764021964121
  1.6595033122339684  1.9162293680787146 26.5657235978035899
  0.0000000000000001  0.9581146840393572 36.4142764021964069
  0.0000000000000001  0.9581146840393572 33.0557235978035919
