 W Te 
 1.0000000000000000
     3.5500762220713602    0.0000000000000000    0.0000000000000000
    -1.7750381110356801    3.0744561936848842    0.0000000000000000
     0.0000000000000000   -0.0000000000000000   50.0000000000000000
   4   8
Cartesian
  0.0000000000000001  1.0248187312282948 14.4100000000000001
  1.7750381110356801  2.0496374624565892 21.4699999999999989
  0.0000000000000001  1.0248187312282948 28.5299999999999976
  1.7750381110356801  2.0496374624565892 35.5900000000000034
  1.7750381110356801  2.0496374624565892 16.2219622132334678
  1.7750381110356801  2.0496374624565892 12.5980377867665361
  0.0000000000000001  1.0248187312282948 23.2819622132334665
  0.0000000000000001  1.0248187312282948 19.6580377867665348
  1.7750381110356801  2.0496374624565892 30.3419622132334652
  1.7750381110356801  2.0496374624565892 26.7180377867665335
  0.0000000000000001  1.0248187312282948 37.4019622132334675
  0.0000000000000001  1.0248187312282948 33.7780377867665393
