 W Se 
 1.0000000000000000
     3.3190066244679373    0.0000000000000000    0.0000000000000000
    -1.6595033122339686    2.8743440521180719    0.0000000000000000
     0.0000000000000000   -0.0000000000000000   50.0000000000000000
   2   4
Cartesian
  0.0000000000000001  0.9581146840393572 21.7549999999999990
  1.6595033122339684  1.9162293680787146 28.2449999999999974
  1.6595033122339684  1.9162293680787146 23.4342764021964101
  1.6595033122339684  1.9162293680787146 20.0757235978035879
  0.0000000000000001  0.9581146840393572 29.9242764021964085
  0.0000000000000001  0.9581146840393572 26.5657235978035899
