 W  S                                   
   1.00000000000000     
     3.1859459496614191    0.0000000000000000    0.0000000000000000
    -1.5929729748307095    2.7591101274909273    0.0000000000000000
     0.0000000000000000    0.0000000000000000   50.0000000000000000
   W    S 
     5    10
Direct
  0.1666666666666643  0.3333333333333357  0.2539999999999978
  0.8333333333333357  0.6666666666666643  0.3770000000000024
  0.1666666666666643  0.3333333333333357  0.5000000000000000
  0.8333333333333357  0.6666666666666643  0.6229999999999976
  0.1666666666666643  0.3333333333333357  0.7460000000000022
  0.8333333333333357  0.6666666666666643  0.2854559487597257
  0.8333333333333357  0.6666666666666643  0.2225440512402770
  0.1666666666666643  0.3333333333333357  0.4084559487597232
  0.1666666666666643  0.3333333333333357  0.3455440512402745
  0.8333333333333357  0.6666666666666643  0.5314559487597208
  0.8333333333333357  0.6666666666666643  0.4685440512402792
  0.1666666666666643  0.3333333333333357  0.6544559487597255
  0.1666666666666643  0.3333333333333357  0.5915440512402768
  0.8333333333333357  0.6666666666666643  0.7774559487597230
  0.8333333333333357  0.6666666666666643  0.7145440512402743
 
  0.00000000E+00  0.00000000E+00  0.00000000E+00
  0.00000000E+00  0.00000000E+00  0.00000000E+00
  0.00000000E+00  0.00000000E+00  0.00000000E+00
  0.00000000E+00  0.00000000E+00  0.00000000E+00
  0.00000000E+00  0.00000000E+00  0.00000000E+00
  0.00000000E+00  0.00000000E+00  0.00000000E+00
  0.00000000E+00  0.00000000E+00  0.00000000E+00
  0.00000000E+00  0.00000000E+00  0.00000000E+00
  0.00000000E+00  0.00000000E+00  0.00000000E+00
  0.00000000E+00  0.00000000E+00  0.00000000E+00
  0.00000000E+00  0.00000000E+00  0.00000000E+00
  0.00000000E+00  0.00000000E+00  0.00000000E+00
  0.00000000E+00  0.00000000E+00  0.00000000E+00
  0.00000000E+00  0.00000000E+00  0.00000000E+00
  0.00000000E+00  0.00000000E+00  0.00000000E+00
