 W  S 
 1.0000000000000000
     3.1859459496614191    0.0000000000000000    0.0000000000000000
    -1.5929729748307095    2.7591101274909273    0.0000000000000000
     0.0000000000000000   -0.0000000000000000   50.0000000000000000
   5  10
Cartesian
  0.0000000000000001  0.9197033758303091 12.6999999999999993
  1.5929729748307095  1.8394067516606181 18.8499999999999979
  0.0000000000000001  0.9197033758303091 25.0000000000000000
  1.5929729748307095  1.8394067516606181 31.1500000000000021
  0.0000000000000001  0.9197033758303091 37.3000000000000043
  1.5929729748307095  1.8394067516606181 14.2727974379861848
  1.5929729748307095  1.8394067516606181 11.1272025620138137
  0.0000000000000001  0.9197033758303091 20.4227974379861834
  0.0000000000000001  0.9197033758303091 17.2772025620138159
  1.5929729748307095  1.8394067516606181 26.5727974379861855
  1.5929729748307095  1.8394067516606181 23.4272025620138145
  0.0000000000000001  0.9197033758303091 32.7227974379861877
  0.0000000000000001  0.9197033758303091 29.5772025620138166
  1.5929729748307095  1.8394067516606181 38.8727974379861863
  1.5929729748307095  1.8394067516606181 35.7272025620138152
