Mo Se                                   
   1.00000000000000     
     3.3197487878576672    0.0000000000000000    0.0000000000000000
    -1.6598743939288336    2.8749867844673367    0.0000000000000000
     0.0000000000000000    0.0000000000000000   50.0000000000000000
   Mo   Se
     2     4
Direct
  0.1666666666666643  0.3333333333333357  0.4354000000000013
  0.8333333333333357  0.6666666666666643  0.5645999999999987
  0.8333333333333357  0.6666666666666643  0.4687805895352639
  0.8333333333333357  0.6666666666666643  0.4020194104647388
  0.1666666666666643  0.3333333333333357  0.5979805895352612
  0.1666666666666643  0.3333333333333357  0.5312194104647361
 
  0.00000000E+00  0.00000000E+00  0.00000000E+00
  0.00000000E+00  0.00000000E+00  0.00000000E+00
  0.00000000E+00  0.00000000E+00  0.00000000E+00
  0.00000000E+00  0.00000000E+00  0.00000000E+00
  0.00000000E+00  0.00000000E+00  0.00000000E+00
  0.00000000E+00  0.00000000E+00  0.00000000E+00
