Mo Se 
 1.0000000000000000
     3.3197487878576672    0.0000000000000000    0.0000000000000000
    -1.6598743939288336    2.8749867844673367    0.0000000000000000
     0.0000000000000000   -0.0000000000000000   50.0000000000000000
   2   4
Cartesian
  0.0000000000000000  0.9583289281557789 21.7700000000000031
  1.6598743939288336  1.9166578563115577 28.2300000000000040
  1.6598743939288336  1.9166578563115577 23.4390294767632099
  1.6598743939288336  1.9166578563115577 20.1009705232367963
  0.0000000000000000  0.9583289281557789 29.8990294767632072
  0.0000000000000000  0.9583289281557789 26.5609705232367972
