Mo  S 
 1.0000000000000000
     3.1840664646845926    0.0000000000000000    0.0000000000000000
    -1.5920332323422963    2.7574824457549640    0.0000000000000000
     0.0000000000000000    0.0000000000000000   50.0000000000000000
   4   8
Cartesian
  0.0000000000000000  0.9191608152516547 15.7749999999999986
  1.5920332323422963  1.8383216305033092 21.9249999999999972
  0.0000000000000000  0.9191608152516547 28.0749999999999993
  1.5920332323422963  1.8383216305033092 34.2250000000000014
  1.5920332323422963  1.8383216305033092 17.3385563231757587
  1.5920332323422963  1.8383216305033092 14.2114436768242385
  0.0000000000000000  0.9191608152516547 23.4885563231757573
  0.0000000000000000  0.9191608152516547 20.3614436768242371
  1.5920332323422963  1.8383216305033092 29.6385563231757594
  1.5920332323422963  1.8383216305033092 26.5114436768242392
  0.0000000000000000  0.9191608152516547 35.7885563231757615
  0.0000000000000000  0.9191608152516547 32.6614436768242413
