 W Te                                   
   1.00000000000000     
     3.5500762220713602    0.0000000000000000    0.0000000000000000
    -1.7750381110356801    3.0744561936848842    0.0000000000000000
     0.0000000000000000    0.0000000000000000   50.0000000000000000
   W    Te
     5    10
Direct
  0.1666666666666643  0.3333333333333357  0.2175999999999974
  0.8333333333333357  0.6666666666666643  0.3588000000000022
  0.1666666666666643  0.3333333333333357  0.5000000000000000
  0.8333333333333357  0.6666666666666643  0.6411999999999978
  0.1666666666666643  0.3333333333333357  0.7824000000000026
  0.8333333333333357  0.6666666666666643  0.2538392442646682
  0.8333333333333357  0.6666666666666643  0.1813607557353336
  0.1666666666666643  0.3333333333333357  0.3950392442646660
  0.1666666666666643  0.3333333333333357  0.3225607557353314
  0.8333333333333357  0.6666666666666643  0.5362392442646708
  0.8333333333333357  0.6666666666666643  0.4637607557353292
  0.1666666666666643  0.3333333333333357  0.6774392442646686
  0.1666666666666643  0.3333333333333357  0.6049607557353340
  0.8333333333333357  0.6666666666666643  0.8186392442646664
  0.8333333333333357  0.6666666666666643  0.7461607557353318
 
  0.00000000E+00  0.00000000E+00  0.00000000E+00
  0.00000000E+00  0.00000000E+00  0.00000000E+00
  0.00000000E+00  0.00000000E+00  0.00000000E+00
  0.00000000E+00  0.00000000E+00  0.00000000E+00
  0.00000000E+00  0.00000000E+00  0.00000000E+00
  0.00000000E+00  0.00000000E+00  0.00000000E+00
  0.00000000E+00  0.00000000E+00  0.00000000E+00
  0.00000000E+00  0.00000000E+00  0.00000000E+00
  0.00000000E+00  0.00000000E+00  0.00000000E+00
  0.00000000E+00  0.00000000E+00  0.00000000E+00
  0.00000000E+00  0.00000000E+00  0.00000000E+00
  0.00000000E+00  0.00000000E+00  0.00000000E+00
  0.00000000E+00  0.00000000E+00  0.00000000E+00
  0.00000000E+00  0.00000000E+00  0.00000000E+00
  0.00000000E+00  0.00000000E+00  0.00000000E+00
