 W Te 
 1.0000000000000000
     3.5500762220713602    0.0000000000000000    0.0000000000000000
    -1.7750381110356801    3.0744561936848842    0.0000000000000000
     0.0000000000000000   -0.0000000000000000   50.0000000000000000
   5  10
Cartesian
  0.0000000000000001  1.0248187312282948 10.8799999999999990
  1.7750381110356801  2.0496374624565892 17.9399999999999977
  0.0000000000000001  1.0248187312282948 24.9999999999999964
  1.7750381110356801  2.0496374624565892 32.0600000000000023
  0.0000000000000001  1.0248187312282948 39.1200000000000045
  1.7750381110356801  2.0496374624565892 12.6919622132334666
  1.7750381110356801  2.0496374624565892  9.0680377867665349
  0.0000000000000001  1.0248187312282948 19.7519622132334653
  0.0000000000000001  1.0248187312282948 16.1280377867665337
  1.7750381110356801  2.0496374624565892 26.8119622132334641
  1.7750381110356801  2.0496374624565892 23.1880377867665324
  0.0000000000000001  1.0248187312282948 33.8719622132334663
  0.0000000000000001  1.0248187312282948 30.2480377867665347
  1.7750381110356801  2.0496374624565892 40.9319622132334686
  1.7750381110356801  2.0496374624565892 37.3080377867665334
