 W  S 
 1.0000000000000000
     3.1859459496614191    0.0000000000000000    0.0000000000000000
    -1.5929729748307095    2.7591101274909273    0.0000000000000000
     0.0000000000000000   -0.0000000000000000   50.0000000000000000
   2   4
Cartesian
  0.0000000000000001  0.9197033758303091 21.9250000000000007
  1.5929729748307095  1.8394067516606181 28.0750000000000028
  1.5929729748307095  1.8394067516606181 23.4977974379861863
  1.5929729748307095  1.8394067516606181 20.3522025620138152
  0.0000000000000001  0.9197033758303091 29.6477974379861848
  0.0000000000000001  0.9197033758303091 26.5022025620138173
