Mo Se 
 1.0000000000000000
     3.3197487878576672    0.0000000000000000    0.0000000000000000
    -1.6598743939288336    2.8749867844673367    0.0000000000000000
     0.0000000000000000   -0.0000000000000000   50.0000000000000000
   1   2
Cartesian
  0.0000000000000000  0.9583289281557789 25.0000000000000000
  1.6598743939288336  1.9166578563115577 26.6690294767632068
  1.6598743939288336  1.9166578563115577 23.3309705232367932
