 W Te                                   
   1.00000000000000     
     3.5500762220713602    0.0000000000000000    0.0000000000000000
    -1.7750381110356801    3.0744561936848842    0.0000000000000000
     0.0000000000000000    0.0000000000000000   50.0000000000000000
   W    Te
     2     4
Direct
  0.1666666666666643  0.3333333333333357  0.4294000000000011
  0.8333333333333357  0.6666666666666643  0.5705999999999989
  0.8333333333333357  0.6666666666666643  0.4656392442646720
  0.8333333333333357  0.6666666666666643  0.3931607557353303
  0.1666666666666643  0.3333333333333357  0.6068392442646697
  0.1666666666666643  0.3333333333333357  0.5343607557353280
 
  0.00000000E+00  0.00000000E+00  0.00000000E+00
  0.00000000E+00  0.00000000E+00  0.00000000E+00
  0.00000000E+00  0.00000000E+00  0.00000000E+00
  0.00000000E+00  0.00000000E+00  0.00000000E+00
  0.00000000E+00  0.00000000E+00  0.00000000E+00
  0.00000000E+00  0.00000000E+00  0.00000000E+00
