 W Te 
 1.0000000000000000
     3.5500762220713602    0.0000000000000000    0.0000000000000000
    -1.7750381110356801    3.0744561936848842    0.0000000000000000
     0.0000000000000000   -0.0000000000000000   50.0000000000000000
   2   4
Cartesian
  0.0000000000000001  1.0248187312282948 21.4699999999999989
  1.7750381110356801  2.0496374624565892 28.5299999999999976
  1.7750381110356801  2.0496374624565892 23.2819622132334629
  1.7750381110356801  2.0496374624565892 19.6580377867665348
  0.0000000000000001  1.0248187312282948 30.3419622132334652
  0.0000000000000001  1.0248187312282948 26.7180377867665335
