 W  S 
 1.0000000000000000
     3.1859459496614191    0.0000000000000000    0.0000000000000000
    -1.5929729748307095    2.7591101274909273    0.0000000000000000
     0.0000000000000000   -0.0000000000000000   50.0000000000000000
   6  12
Cartesian
  0.0000000000000001  0.9197033758303091  9.6250000000000000
  1.5929729748307095  1.8394067516606181 15.7750000000000004
  0.0000000000000001  0.9197033758303091 21.9250000000000007
  1.5929729748307095  1.8394067516606181 28.0750000000000028
  0.0000000000000001  0.9197033758303091 34.2250000000000014
  1.5929729748307095  1.8394067516606181 40.3749999999999929
  1.5929729748307095  1.8394067516606181 11.1977974379861855
  1.5929729748307095  1.8394067516606181  8.0522025620138145
  0.0000000000000001  0.9197033758303091 17.3477974379861841
  0.0000000000000001  0.9197033758303091 14.2022025620138166
  1.5929729748307095  1.8394067516606181 23.4977974379861863
  1.5929729748307095  1.8394067516606181 20.3522025620138152
  0.0000000000000001  0.9197033758303091 29.6477974379861884
  0.0000000000000001  0.9197033758303091 26.5022025620138173
  1.5929729748307095  1.8394067516606181 35.7977974379861834
  1.5929729748307095  1.8394067516606181 32.6522025620138123
  0.0000000000000001  0.9197033758303091 41.9477974379861820
  0.0000000000000001  0.9197033758303091 38.8022025620138109
