 W  S                                   
   1.00000000000000     
     3.1859459496614191    0.0000000000000000    0.0000000000000000
    -1.5929729748307095    2.7591101274909273    0.0000000000000000
     0.0000000000000000    0.0000000000000000   50.0000000000000000
   W    S 
     4     8
Direct
  0.1666666666666643  0.3333333333333357  0.3155000000000001
  0.8333333333333357  0.6666666666666643  0.4384999999999977
  0.1666666666666643  0.3333333333333357  0.5615000000000023
  0.8333333333333357  0.6666666666666643  0.6844999999999999
  0.8333333333333357  0.6666666666666643  0.3469559487597209
  0.8333333333333357  0.6666666666666643  0.2840440512402793
  0.1666666666666643  0.3333333333333357  0.4699559487597256
  0.1666666666666643  0.3333333333333357  0.4070440512402769
  0.8333333333333357  0.6666666666666643  0.5929559487597231
  0.8333333333333357  0.6666666666666643  0.5300440512402744
  0.1666666666666643  0.3333333333333357  0.7159559487597207
  0.1666666666666643  0.3333333333333357  0.6530440512402791
 
  0.00000000E+00  0.00000000E+00  0.00000000E+00
  0.00000000E+00  0.00000000E+00  0.00000000E+00
  0.00000000E+00  0.00000000E+00  0.00000000E+00
  0.00000000E+00  0.00000000E+00  0.00000000E+00
  0.00000000E+00  0.00000000E+00  0.00000000E+00
  0.00000000E+00  0.00000000E+00  0.00000000E+00
  0.00000000E+00  0.00000000E+00  0.00000000E+00
  0.00000000E+00  0.00000000E+00  0.00000000E+00
  0.00000000E+00  0.00000000E+00  0.00000000E+00
  0.00000000E+00  0.00000000E+00  0.00000000E+00
  0.00000000E+00  0.00000000E+00  0.00000000E+00
  0.00000000E+00  0.00000000E+00  0.00000000E+00
