 W  S 
 1.0000000000000000
     3.1859459496614191    0.0000000000000000    0.0000000000000000
    -1.5929729748307095    2.7591101274909273    0.0000000000000000
     0.0000000000000000   -0.0000000000000000   50.0000000000000000
   4   8
Cartesian
  0.0000000000000001  0.9197033758303091 15.7749999999999986
  1.5929729748307095  1.8394067516606181 21.9249999999999972
  0.0000000000000001  0.9197033758303091 28.0749999999999993
  1.5929729748307095  1.8394067516606181 34.2250000000000014
  1.5929729748307095  1.8394067516606181 17.3477974379861841
  1.5929729748307095  1.8394067516606181 14.2022025620138130
  0.0000000000000001  0.9197033758303091 23.4977974379861827
  0.0000000000000001  0.9197033758303091 20.3522025620138152
  1.5929729748307095  1.8394067516606181 29.6477974379861848
  1.5929729748307095  1.8394067516606181 26.5022025620138137
  0.0000000000000001  0.9197033758303091 35.7977974379861905
  0.0000000000000001  0.9197033758303091 32.6522025620138123
