Mo  S 
 1.0000000000000000
     3.1840664646845926    0.0000000000000000    0.0000000000000000
    -1.5920332323422963    2.7574824457549640    0.0000000000000000
     0.0000000000000000    0.0000000000000000   50.0000000000000000
   1   2
Cartesian
  0.0000000000000000  0.9191608152516547 25.0000000000000000
  1.5920332323422963  1.8383216305033092 26.5635563231757601
  1.5920332323422963  1.8383216305033092 23.4364436768242399
